param set_len = 26;
param target_sum = 8752820578;
param values := [1] 2588368 [2] 942443364 [3] 934388780 [4] 322906789 [5] 161782808 [6] 746312145 [7] 656645702 [8] 1022651261 [9] 686082495 [10] 538595697 [11] 934575814 [12] 831672952 [13] 941715706 [14] 764106386 [15] 574196564 [16] 1013066133 [17] 385398984 [18] 153585565 [19] 1055933763 [20] 366144731 [21] 803071087 [22] 271777112 [23] 480713479 [24] 200410723 [25] 142847592 [26] 528356460 ;
